
(set-logic ALL) 

(declare-datatype MyList ((Nil) (Cons (head Real) (tail MyList)) )) 
(declare-fun l0 () MyList) 
(declare-fun l1 () MyList) 
(declare-fun l2 () MyList) 
(declare-fun l3 () MyList) 
(declare-fun i0 () Real) 
(declare-fun i1 () Real) 
(assert (= l1 l2) )
(assert (and (= l3 l2) (is-Cons l0) (is-Cons Nil)) )
(assert (is-Nil Nil) )
(assert (is-Nil Nil) )
(assert (is-Nil Nil) )
(assert (is-Nil Nil) )
(assert (and (= l2 l1) (= l1 Nil)) )
(assert (and (= l3 Nil) (is-Cons Nil) (is-Nil Nil)) )
(check-sat)
